p edge 1080 2592
e 1 181
e 1 316
e 1 515
e 2 538
e 2 733
e 2 887
e 3 145
e 3 856
e 3 944
e 4 675
e 4 838
e 4 844
e 5 105
e 5 567
e 5 1017
e 6 587
e 6 672
e 6 897
e 7 389
e 7 413
e 7 450
e 8 24
e 8 136
e 8 204
e 8 207
e 8 257
e 8 334
e 8 448
e 8 454
e 8 467
e 8 562
e 8 610
e 8 723
e 9 57
e 9 619
e 9 698
e 10 321
e 10 753
e 10 830
e 11 832
e 11 944
e 11 962
e 12 722
e 12 811
e 12 895
e 13 74
e 13 311
e 13 647
e 14 41
e 14 58
e 14 177
e 14 218
e 14 238
e 14 379
e 14 438
e 14 541
e 14 599
e 14 661
e 14 917
e 14 1006
e 15 98
e 15 345
e 15 567
e 16 278
e 16 324
e 16 337
e 16 357
e 16 391
e 16 398
e 16 446
e 16 579
e 16 670
e 16 784
e 16 791
e 16 1073
e 17 659
e 17 757
e 17 918
e 18 443
e 18 470
e 18 826
e 19 149
e 19 470
e 19 718
e 20 862
e 20 923
e 20 1028
e 21 26
e 21 349
e 21 680
e 22 38
e 22 154
e 22 795
e 23 77
e 23 897
e 23 983
e 24 141
e 24 536
e 25 409
e 25 698
e 25 963
e 26 88
e 26 159
e 26 337
e 26 366
e 26 447
e 26 451
e 26 472
e 26 712
e 26 770
e 26 848
e 26 958
e 27 265
e 27 612
e 27 1049
e 28 220
e 28 250
e 28 962
e 29 44
e 29 587
e 29 635
e 30 102
e 30 519
e 30 943
e 31 724
e 31 842
e 31 1021
e 32 259
e 32 360
e 32 1021
e 33 336
e 33 643
e 33 842
e 34 356
e 34 470
e 34 944
e 35 416
e 35 795
e 35 918
e 36 167
e 36 621
e 36 1048
e 37 289
e 37 595
e 37 733
e 38 93
e 38 351
e 38 383
e 38 412
e 38 759
e 38 775
e 38 837
e 38 907
e 38 946
e 38 1060
e 38 1070
e 39 394
e 39 781
e 39 809
e 40 515
e 40 726
e 40 925
e 41 345
e 41 405
e 42 309
e 42 463
e 42 774
e 43 389
e 43 419
e 43 929
e 44 87
e 44 429
e 44 466
e 44 517
e 44 545
e 44 547
e 44 744
e 44 761
e 44 840
e 44 873
e 44 957
e 45 48
e 45 81
e 45 159
e 45 182
e 45 253
e 45 269
e 45 395
e 45 421
e 45 644
e 45 653
e 45 666
e 45 689
e 46 331
e 46 458
e 46 1021
e 47 536
e 47 587
e 47 915
e 48 74
e 48 929
e 49 254
e 49 826
e 49 962
e 50 69
e 50 125
e 50 190
e 50 231
e 50 641
e 50 713
e 50 758
e 50 783
e 50 871
e 50 904
e 50 1006
e 50 1009
e 51 464
e 51 647
e 51 772
e 52 470
e 52 621
e 52 830
e 53 124
e 53 254
e 53 309
e 54 346
e 54 470
e 54 721
e 55 170
e 55 724
e 55 781
e 56 413
e 56 929
e 56 966
e 57 188
e 57 257
e 57 376
e 57 461
e 57 508
e 57 628
e 57 729
e 57 758
e 57 786
e 57 790
e 57 874
e 58 161
e 58 554
e 59 450
e 59 698
e 59 856
e 60 331
e 60 436
e 60 890
e 61 69
e 61 169
e 61 268
e 61 279
e 61 280
e 61 358
e 61 372
e 61 615
e 61 751
e 61 787
e 61 960
e 61 1011
e 62 643
e 62 742
e 62 891
e 63 137
e 63 256
e 63 370
e 64 183
e 64 218
e 64 355
e 64 429
e 64 459
e 64 583
e 64 652
e 64 712
e 64 738
e 64 755
e 64 784
e 64 835
e 65 336
e 65 665
e 65 1017
e 66 170
e 66 171
e 66 1061
e 67 277
e 67 687
e 67 697
e 68 124
e 68 141
e 68 289
e 69 181
e 70 672
e 70 803
e 70 1028
e 71 206
e 71 302
e 71 328
e 71 371
e 71 374
e 71 475
e 71 655
e 71 700
e 71 734
e 71 766
e 71 853
e 71 1038
e 72 309
e 72 463
e 72 832
e 73 75
e 73 105
e 73 897
e 74 121
e 74 212
e 74 290
e 74 300
e 74 381
e 74 530
e 74 715
e 74 835
e 74 840
e 74 1013
e 75 106
e 75 175
e 75 189
e 75 260
e 75 325
e 75 327
e 75 358
e 75 400
e 75 461
e 75 638
e 75 855
e 76 149
e 76 621
e 76 740
e 77 79
e 77 103
e 77 243
e 77 315
e 77 362
e 77 574
e 77 629
e 77 661
e 77 892
e 77 1036
e 77 1078
e 78 154
e 78 167
e 78 320
e 79 643
e 79 1058
e 80 217
e 80 411
e 80 436
e 81 481
e 81 703
e 82 423
e 82 595
e 82 724
e 83 137
e 83 665
e 83 915
e 84 196
e 84 259
e 84 760
e 85 862
e 85 918
e 85 980
e 86 846
e 86 944
e 86 1072
e 87 256
e 87 273
e 88 496
e 88 753
e 89 665
e 89 815
e 89 1061
e 90 289
e 90 405
e 90 587
e 91 742
e 91 842
e 91 943
e 92 239
e 92 507
e 92 550
e 93 105
e 93 838
e 94 154
e 94 846
e 94 897
e 95 167
e 95 425
e 95 795
e 96 156
e 96 161
e 96 725
e 97 321
e 97 418
e 97 550
e 98 119
e 98 131
e 98 166
e 98 183
e 98 192
e 98 362
e 98 553
e 98 564
e 98 696
e 98 796
e 98 998
e 99 256
e 99 890
e 99 1028
e 100 217
e 100 256
e 100 698
e 101 227
e 101 232
e 101 329
e 101 375
e 101 391
e 101 448
e 101 466
e 101 557
e 101 705
e 101 931
e 101 997
e 101 1030
e 102 183
e 102 222
e 102 263
e 102 364
e 102 521
e 102 752
e 102 920
e 102 947
e 102 956
e 102 1022
e 102 1071
e 103 514
e 103 536
e 104 132
e 104 514
e 104 789
e 105 122
e 105 588
e 105 633
e 105 736
e 105 867
e 105 950
e 105 986
e 105 999
e 105 1071
e 106 321
e 106 432
e 107 112
e 107 220
e 107 725
e 108 464
e 108 680
e 108 722
e 109 160
e 109 432
e 109 440
e 110 753
e 110 883
e 110 929
e 111 193
e 111 282
e 111 887
e 112 140
e 112 422
e 112 435
e 112 462
e 112 482
e 112 570
e 112 711
e 112 759
e 112 785
e 112 797
e 112 912
e 113 490
e 113 531
e 113 1028
e 114 496
e 114 687
e 114 980
e 115 800
e 115 963
e 115 1072
e 116 370
e 116 507
e 116 619
e 117 698
e 117 929
e 117 1072
e 118 239
e 118 724
e 118 866
e 119 481
e 119 742
e 120 316
e 120 556
e 120 578
e 121 215
e 121 282
e 122 515
e 122 789
e 123 498
e 123 838
e 123 1048
e 124 130
e 124 177
e 124 342
e 124 427
e 124 616
e 124 693
e 124 738
e 124 750
e 124 916
e 124 1044
e 125 293
e 125 303
e 126 346
e 126 498
e 126 809
e 127 273
e 127 539
e 127 862
e 128 265
e 128 721
e 128 1069
e 129 394
e 129 423
e 129 550
e 130 309
e 130 815
e 131 336
e 131 891
e 132 228
e 132 317
e 132 374
e 132 395
e 132 474
e 132 617
e 132 701
e 132 756
e 132 773
e 132 794
e 132 933
e 133 162
e 133 481
e 133 809
e 134 777
e 134 865
e 134 890
e 135 440
e 135 524
e 135 815
e 136 311
e 136 934
e 137 153
e 137 467
e 137 558
e 137 566
e 137 654
e 137 670
e 137 745
e 137 761
e 137 919
e 137 970
e 138 413
e 138 687
e 138 963
e 139 236
e 139 578
e 139 1069
e 140 167
e 140 724
e 141 270
e 141 406
e 141 457
e 141 485
e 141 532
e 141 569
e 141 624
e 141 690
e 141 744
e 141 768
e 142 277
e 142 414
e 142 1072
e 143 822
e 143 915
e 143 1028
e 144 389
e 144 697
e 144 980
e 145 264
e 145 495
e 145 549
e 145 565
e 145 720
e 145 750
e 145 818
e 145 940
e 145 976
e 145 1044
e 145 1063
e 146 514
e 146 772
e 146 842
e 147 161
e 147 606
e 147 725
e 148 349
e 148 883
e 148 887
e 149 208
e 149 304
e 149 390
e 149 543
e 149 644
e 149 755
e 149 791
e 149 863
e 149 924
e 149 1020
e 150 165
e 150 244
e 150 329
e 150 335
e 150 449
e 150 502
e 150 579
e 150 609
e 150 685
e 150 775
e 150 919
e 150 1033
e 151 156
e 151 463
e 151 519
e 152 925
e 152 1056
e 152 1069
e 153 523
e 153 672
e 154 313
e 154 348
e 154 455
e 154 673
e 154 739
e 154 764
e 154 818
e 154 909
e 154 938
e 155 703
e 155 842
e 155 932
e 156 184
e 156 243
e 156 576
e 156 577
e 156 584
e 156 586
e 156 630
e 156 652
e 156 904
e 156 916
e 157 321
e 157 389
e 157 675
e 158 436
e 158 727
e 158 767
e 159 697
e 160 202
e 160 323
e 160 408
e 160 491
e 160 799
e 160 868
e 160 893
e 160 940
e 160 1003
e 160 1047
e 160 1060
e 161 203
e 161 271
e 161 330
e 161 332
e 161 388
e 161 636
e 161 817
e 161 973
e 161 1004
e 162 341
e 162 353
e 162 372
e 162 373
e 162 475
e 162 504
e 162 512
e 162 813
e 162 828
e 162 899
e 162 996
e 163 753
e 163 842
e 163 885
e 164 168
e 164 178
e 164 301
e 164 382
e 164 535
e 164 653
e 164 683
e 164 709
e 164 766
e 164 827
e 164 854
e 164 1032
e 165 380
e 165 419
e 166 842
e 166 1061
e 167 198
e 167 509
e 167 525
e 167 588
e 167 685
e 167 868
e 167 911
e 167 921
e 168 440
e 168 1017
e 169 1021
e 169 1028
e 170 174
e 170 178
e 170 261
e 170 283
e 170 350
e 170 395
e 170 831
e 170 981
e 170 1035
e 170 1073
e 171 241
e 171 255
e 171 266
e 171 307
e 171 329
e 171 745
e 171 755
e 171 770
e 171 823
e 171 878
e 171 937
e 172 200
e 172 360
e 172 423
e 173 470
e 173 659
e 173 767
e 174 539
e 174 742
e 175 360
e 175 811
e 176 239
e 176 336
e 176 539
e 177 519
e 178 932
e 179 419
e 179 443
e 179 659
e 180 464
e 180 726
e 180 866
e 181 199
e 181 301
e 181 319
e 181 572
e 181 633
e 181 773
e 181 909
e 181 975
e 181 995
e 181 1047
e 182 883
e 182 963
e 184 250
e 184 440
e 185 384
e 185 443
e 185 804
e 186 419
e 186 675
e 186 862
e 187 285
e 187 292
e 187 294
e 187 376
e 187 582
e 187 585
e 187 602
e 187 615
e 187 623
e 187 695
e 187 999
e 187 1050
e 188 606
e 188 800
e 189 822
e 189 1015
e 190 349
e 190 962
e 191 380
e 191 413
e 191 862
e 192 703
e 192 866
e 193 269
e 193 459
e 193 483
e 193 488
e 193 505
e 193 545
e 193 765
e 193 850
e 193 936
e 193 1046
e 193 1052
e 194 419
e 194 795
e 194 1058
e 195 236
e 195 672
e 195 760
e 196 198
e 196 307
e 196 351
e 196 375
e 196 433
e 196 439
e 196 441
e 196 670
e 196 875
e 196 880
e 196 910
e 197 217
e 197 531
e 197 800
e 198 929
e 199 635
e 199 1048
e 200 211
e 200 241
e 200 308
e 200 314
e 200 357
e 200 421
e 200 681
e 200 751
e 200 769
e 200 821
e 200 998
e 201 346
e 201 804
e 201 1049
e 202 498
e 202 795
e 203 265
e 203 767
e 204 331
e 204 803
e 205 217
e 205 722
e 205 832
e 206 718
e 206 826
e 207 273
e 207 523
e 208 519
e 208 539
e 209 352
e 209 767
e 209 1069
e 210 321
e 210 687
e 210 748
e 211 891
e 211 932
e 212 523
e 212 760
e 213 293
e 213 405
e 213 519
e 214 216
e 214 243
e 214 424
e 214 444
e 214 511
e 214 563
e 214 594
e 214 599
e 214 636
e 214 816
e 214 955
e 214 964
e 215 227
e 215 296
e 215 342
e 215 368
e 215 434
e 215 488
e 215 532
e 215 654
e 215 704
e 215 798
e 215 1031
e 216 277
e 216 356
e 217 233
e 217 272
e 217 315
e 217 618
e 217 691
e 217 851
e 217 860
e 217 1079
e 218 463
e 219 303
e 219 389
e 219 1061
e 220 262
e 220 368
e 220 381
e 220 471
e 220 543
e 220 765
e 220 783
e 220 843
e 220 848
e 220 1068
e 221 800
e 221 803
e 221 925
e 222 815
e 222 1048
e 223 772
e 223 891
e 223 983
e 224 346
e 224 443
e 224 918
e 225 254
e 225 414
e 225 595
e 226 519
e 226 883
e 226 1018
e 227 804
e 228 1017
e 228 1034
e 229 672
e 229 923
e 229 934
e 230 436
e 230 490
e 230 698
e 231 760
e 231 803
e 232 370
e 232 531
e 233 494
e 233 781
e 234 363
e 234 732
e 234 983
e 235 531
e 235 721
e 235 737
e 236 332
e 236 401
e 236 563
e 236 610
e 236 629
e 236 650
e 236 776
e 236 833
e 236 851
e 236 852
e 237 289
e 237 322
e 237 463
e 238 743
e 238 1034
e 239 255
e 239 291
e 239 324
e 239 354
e 239 653
e 239 735
e 239 756
e 239 886
e 239 988
e 240 621
e 240 675
e 240 1058
e 241 277
e 242 490
e 242 494
e 242 722
e 244 760
e 244 1028
e 245 619
e 245 725
e 245 1069
e 246 418
e 246 897
e 246 1048
e 247 647
e 247 760
e 247 883
e 248 612
e 248 635
e 248 865
e 249 606
e 249 635
e 249 680
e 250 268
e 250 399
e 250 508
e 250 541
e 250 634
e 250 677
e 250 802
e 250 913
e 250 975
e 250 1051
e 251 419
e 251 450
e 251 687
e 252 718
e 252 804
e 252 830
e 253 394
e 253 524
e 254 264
e 254 489
e 254 548
e 254 607
e 254 664
e 254 691
e 254 956
e 254 974
e 254 1055
e 255 742
e 256 274
e 256 407
e 256 557
e 256 618
e 256 658
e 256 660
e 256 1029
e 256 1062
e 257 1028
e 258 363
e 258 416
e 258 643
e 259 279
e 259 378
e 259 555
e 259 609
e 259 618
e 259 628
e 259 723
e 259 899
e 259 935
e 259 992
e 260 496
e 260 550
e 261 722
e 261 1075
e 262 346
e 262 1056
e 263 277
e 263 409
e 264 405
e 265 297
e 265 377
e 265 586
e 265 661
e 265 702
e 265 749
e 265 820
e 265 833
e 265 1000
e 266 703
e 266 748
e 267 336
e 267 966
e 267 1034
e 268 556
e 269 450
e 270 405
e 270 887
e 271 293
e 271 1056
e 272 331
e 272 531
e 273 296
e 273 305
e 273 307
e 273 428
e 273 486
e 273 546
e 273 579
e 273 869
e 273 987
e 274 490
e 274 800
e 275 718
e 275 895
e 275 944
e 276 309
e 276 826
e 276 1072
e 277 365
e 277 446
e 277 477
e 277 749
e 277 948
e 277 994
e 277 1026
e 278 703
e 278 977
e 279 772
e 280 418
e 280 811
e 281 425
e 281 432
e 281 1034
e 282 390
e 282 399
e 282 415
e 282 472
e 282 506
e 282 561
e 282 778
e 282 912
e 282 949
e 282 1009
e 283 423
e 283 432
e 284 320
e 284 554
e 284 1058
e 285 458
e 285 811
e 286 336
e 286 523
e 286 815
e 287 360
e 287 885
e 287 1016
e 288 697
e 288 830
e 288 932
e 289 305
e 289 415
e 289 662
e 289 765
e 289 906
e 289 970
e 289 1013
e 289 1030
e 290 665
e 290 923
e 291 781
e 291 1075
e 292 432
e 292 496
e 293 318
e 293 424
e 293 534
e 293 601
e 293 677
e 293 738
e 293 808
e 293 1000
e 293 1036
e 294 360
e 294 680
e 295 967
e 295 1016
e 295 1075
e 296 740
e 297 356
e 297 977
e 298 370
e 298 578
e 298 587
e 299 740
e 299 757
e 299 826
e 300 450
e 300 753
e 301 514
e 302 665
e 302 772
e 303 348
e 303 541
e 303 577
e 303 701
e 303 730
e 303 793
e 303 908
e 303 939
e 303 1003
e 303 1032
e 304 697
e 304 753
e 305 804
e 306 311
e 306 665
e 306 883
e 308 481
e 308 753
e 309 420
e 309 455
e 309 597
e 309 699
e 309 799
e 309 859
e 309 984
e 310 450
e 310 883
e 310 932
e 311 335
e 311 378
e 311 401
e 311 441
e 311 460
e 311 505
e 311 758
e 311 961
e 311 1051
e 312 360
e 312 418
e 312 726
e 313 440
e 313 550
e 314 643
e 314 866
e 315 865
e 316 385
e 316 400
e 316 509
e 316 544
e 316 667
e 316 695
e 316 847
e 316 920
e 316 946
e 316 1064
e 317 394
e 317 932
e 318 554
e 318 612
e 319 425
e 319 698
e 320 361
e 320 377
e 320 563
e 320 568
e 320 593
e 320 678
e 320 858
e 320 979
e 320 1025
e 320 1060
e 321 451
e 321 533
e 321 623
e 321 644
e 321 741
e 321 754
e 321 1026
e 322 334
e 322 520
e 322 547
e 322 693
e 322 876
e 322 888
e 322 978
e 322 991
e 322 1008
e 322 1031
e 322 1057
e 323 550
e 323 1034
e 324 1061
e 325 458
e 325 726
e 326 507
e 326 724
e 326 967
e 327 697
e 327 1015
e 328 680
e 328 781
e 330 554
e 330 925
e 331 335
e 331 372
e 331 487
e 331 596
e 331 658
e 331 790
e 331 880
e 331 1023
e 332 635
e 333 675
e 333 721
e 333 1072
e 334 897
e 336 359
e 336 622
e 336 793
e 336 823
e 336 1067
e 336 1073
e 337 519
e 338 578
e 338 680
e 338 925
e 339 409
e 339 411
e 339 929
e 340 394
e 340 722
e 340 724
e 341 481
e 341 514
e 342 587
e 343 578
e 343 789
e 343 1048
e 344 413
e 344 795
e 344 844
e 345 529
e 345 601
e 345 752
e 345 770
e 345 791
e 345 824
e 345 840
e 345 916
e 345 936
e 345 959
e 346 561
e 346 605
e 346 810
e 346 907
e 346 911
e 346 993
e 346 1024
e 347 384
e 347 494
e 347 962
e 348 432
e 349 445
e 349 462
e 349 488
e 349 631
e 349 634
e 349 863
e 349 1013
e 349 1024
e 349 1054
e 350 550
e 350 1016
e 351 450
e 352 388
e 352 438
e 352 630
e 352 776
e 352 870
e 352 884
e 352 979
e 352 982
e 352 994
e 352 1036
e 352 1065
e 353 360
e 353 1028
e 354 524
e 354 932
e 355 567
e 355 943
e 356 476
e 356 540
e 356 711
e 356 768
e 356 888
e 356 896
e 356 900
e 356 982
e 356 993
e 357 748
e 358 680
e 359 647
e 359 774
e 360 487
e 360 713
e 360 728
e 360 913
e 360 995
e 361 425
e 361 498
e 362 416
e 363 564
e 363 589
e 363 599
e 363 630
e 363 645
e 363 650
e 363 684
e 363 872
e 363 1000
e 363 1079
e 364 856
e 364 977
e 365 539
e 365 703
e 366 621
e 366 804
e 367 416
e 367 419
e 367 839
e 368 883
e 369 725
e 369 795
e 369 1058
e 370 457
e 370 459
e 370 530
e 370 546
e 370 590
e 370 824
e 370 841
e 370 991
e 371 523
e 371 1021
e 373 842
e 373 1075
e 374 727
e 375 539
e 376 432
e 377 865
e 378 862
e 379 1056
e 379 1069
e 380 431
e 380 452
e 380 518
e 380 533
e 380 674
e 380 688
e 380 747
e 380 910
e 380 942
e 380 954
e 381 887
e 382 464
e 382 962
e 383 862
e 383 963
e 384 442
e 384 476
e 384 489
e 384 495
e 384 611
e 384 700
e 384 706
e 384 717
e 384 859
e 384 882
e 385 414
e 385 774
e 386 507
e 386 538
e 386 809
e 387 423
e 387 606
e 387 1018
e 388 1049
e 389 392
e 389 613
e 389 928
e 389 954
e 389 1005
e 389 1026
e 389 1067
e 390 680
e 391 862
e 392 742
e 392 1034
e 393 394
e 393 1015
e 393 1016
e 394 396
e 394 398
e 394 676
e 394 823
e 394 854
e 394 985
e 396 866
e 396 1075
e 397 419
e 397 963
e 397 966
e 398 742
e 399 737
e 400 536
e 401 915
e 402 411
e 402 619
e 402 803
e 403 411
e 403 490
e 403 531
e 404 523
e 404 883
e 404 923
e 405 632
e 405 652
e 405 686
e 405 699
e 405 720
e 405 984
e 405 1031
e 406 443
e 406 538
e 407 411
e 407 890
e 408 732
e 408 846
e 409 565
e 409 597
e 409 611
e 409 669
e 409 671
e 409 747
e 409 829
e 409 877
e 409 1045
e 410 418
e 410 496
e 410 1015
e 411 510
e 411 639
e 411 786
e 411 889
e 411 893
e 411 909
e 411 914
e 412 659
e 412 1075
e 413 502
e 413 593
e 413 605
e 413 797
e 413 845
e 413 875
e 413 900
e 414 553
e 414 583
e 414 600
e 414 669
e 414 708
e 414 950
e 414 959
e 414 1014
e 414 1027
e 415 883
e 416 452
e 416 469
e 416 501
e 416 551
e 416 593
e 416 771
e 416 927
e 416 1025
e 417 980
e 417 1049
e 417 1072
e 418 484
e 418 651
e 418 667
e 418 707
e 418 710
e 418 729
e 418 736
e 419 433
e 419 435
e 419 678
e 419 993
e 420 425
e 420 732
e 421 842
e 422 498
e 422 1075
e 423 479
e 423 522
e 423 590
e 423 735
e 423 787
e 423 873
e 423 894
e 424 777
e 425 516
e 425 889
e 425 908
e 425 922
e 425 976
e 425 990
e 425 1070
e 426 531
e 426 727
e 426 1049
e 427 494
e 427 846
e 428 647
e 428 915
e 429 883
e 430 498
e 430 659
e 430 724
e 431 767
e 431 1072
e 432 484
e 432 638
e 432 651
e 432 985
e 432 988
e 433 980
e 434 733
e 434 967
e 435 757
e 436 466
e 436 546
e 436 566
e 436 580
e 436 591
e 436 788
e 436 860
e 436 992
e 437 531
e 437 698
e 437 890
e 438 777
e 439 498
e 439 963
e 440 808
e 440 814
e 440 933
e 440 990
e 440 1006
e 440 1059
e 440 1067
e 441 1028
e 442 470
e 442 757
e 443 542
e 443 749
e 443 797
e 443 879
e 443 884
e 443 964
e 443 978
e 444 1049
e 444 1069
e 445 659
e 445 1056
e 446 885
e 447 470
e 447 838
e 448 665
e 449 675
e 449 918
e 450 503
e 450 510
e 450 671
e 450 921
e 450 1033
e 451 932
e 452 621
e 453 839
e 453 844
e 453 918
e 454 760
e 454 865
e 455 536
e 456 515
e 456 606
e 456 811
e 457 635
e 458 522
e 458 681
e 458 707
e 458 871
e 458 899
e 458 975
e 458 1007
e 458 1012
e 458 1037
e 460 743
e 460 822
e 461 550
e 462 554
e 463 532
e 463 549
e 463 601
e 463 664
e 463 801
e 463 941
e 463 1063
e 464 474
e 464 537
e 464 626
e 464 668
e 464 706
e 464 716
e 464 828
e 464 1041
e 465 687
e 465 1034
e 465 1061
e 467 647
e 468 490
e 468 777
e 468 934
e 469 554
e 469 795
e 470 486
e 470 654
e 470 785
e 470 1030
e 471 554
e 471 659
e 472 811
e 473 619
e 473 635
e 473 726
e 474 737
e 475 647
e 476 740
e 477 496
e 477 966
e 478 490
e 478 832
e 478 866
e 479 809
e 479 967
e 480 621
e 480 826
e 480 895
e 481 622
e 481 627
e 481 762
e 481 782
e 481 834
e 481 857
e 481 1043
e 482 721
e 482 740
e 483 753
e 483 963
e 484 697
e 485 672
e 485 732
e 486 887
e 487 772
e 489 737
e 490 589
e 490 629
e 490 658
e 490 992
e 490 1055
e 491 556
e 491 698
e 492 680
e 492 866
e 492 895
e 493 767
e 493 856
e 493 980
e 494 499
e 494 521
e 494 549
e 494 648
e 494 714
e 494 984
e 494 1027
e 494 1039
e 495 1072
e 496 666
e 496 779
e 496 928
e 496 954
e 496 1020
e 496 1074
e 497 772
e 497 809
e 497 842
e 498 603
e 498 764
e 498 847
e 498 986
e 498 1033
e 499 567
e 499 595
e 500 538
e 500 724
e 500 1016
e 501 777
e 501 943
e 502 980
e 503 918
e 503 966
e 504 724
e 504 891
e 505 523
e 506 659
e 506 725
e 507 681
e 507 692
e 507 728
e 507 825
e 507 831
e 507 957
e 507 985
e 507 1011
e 508 923
e 509 838
e 510 1072
e 511 612
e 511 767
e 512 733
e 512 891
e 513 514
e 513 732
e 513 777
e 514 662
e 514 679
e 514 684
e 514 704
e 514 763
e 514 965
e 515 573
e 515 656
e 515 744
e 515 852
e 515 972
e 515 973
e 515 991
e 515 1040
e 516 789
e 516 800
e 517 925
e 517 1016
e 518 721
e 518 856
e 519 526
e 519 530
e 519 545
e 519 553
e 519 937
e 520 538
e 520 757
e 521 967
e 522 885
e 523 705
e 523 828
e 523 903
e 523 905
e 523 1010
e 524 572
e 524 608
e 524 642
e 524 668
e 524 679
e 524 730
e 524 836
e 524 981
e 524 1038
e 525 659
e 525 809
e 526 567
e 526 643
e 527 578
e 527 612
e 527 934
e 528 621
e 528 844
e 528 980
e 529 539
e 529 830
e 531 761
e 531 861
e 531 935
e 531 987
e 533 687
e 534 725
e 534 1069
e 535 789
e 535 983
e 536 585
e 536 645
e 536 736
e 536 922
e 536 940
e 536 945
e 536 1057
e 537 621
e 537 944
e 538 604
e 538 704
e 538 894
e 538 896
e 538 906
e 538 956
e 538 1027
e 539 676
e 539 712
e 539 769
e 539 919
e 539 951
e 540 804
e 540 826
e 542 587
e 542 967
e 543 811
e 544 567
e 544 815
e 547 578
e 548 567
e 548 967
e 550 582
e 550 710
e 550 908
e 550 1050
e 551 838
e 551 980
e 552 612
e 552 725
e 552 925
e 554 561
e 554 576
e 554 657
e 554 719
e 554 1080
e 555 803
e 555 915
e 556 617
e 556 656
e 556 679
e 556 709
e 556 713
e 556 739
e 556 867
e 556 889
e 556 1007
e 557 1018
e 558 804
e 558 887
e 559 795
e 559 844
e 559 1056
e 560 606
e 560 698
e 560 803
e 562 587
e 562 732
e 564 844
e 565 826
e 566 1018
e 567 604
e 567 625
e 567 807
e 567 877
e 567 948
e 568 918
e 568 1058
e 569 757
e 569 967
e 570 767
e 570 804
e 571 619
e 571 800
e 571 822
e 572 983
e 573 587
e 573 1018
e 574 844
e 574 943
e 575 826
e 575 846
e 575 856
e 576 1069
e 577 743
e 578 624
e 578 633
e 578 812
e 578 817
e 578 952
e 580 737
e 580 1049
e 581 659
e 581 740
e 581 1049
e 582 697
e 583 643
e 584 612
e 584 1056
e 585 1048
e 586 777
e 587 731
e 587 801
e 587 896
e 588 718
e 589 865
e 590 925
e 591 721
e 591 962
e 592 891
e 592 943
e 592 1061
e 594 795
e 594 865
e 595 731
e 595 768
e 595 798
e 595 805
e 595 825
e 595 947
e 595 965
e 595 978
e 596 672
e 596 822
e 597 944
e 598 647
e 598 1017
e 598 1061
e 600 1017
e 600 1048
e 602 803
e 602 1015
e 603 862
e 603 929
e 604 832
e 605 757
e 606 639
e 606 663
e 606 719
e 606 841
e 606 952
e 606 957
e 607 727
e 607 944
e 608 737
e 608 895
e 609 923
e 610 923
e 611 846
e 612 657
e 612 663
e 612 852
e 612 870
e 612 917
e 613 697
e 613 977
e 614 887
e 614 967
e 614 983
e 615 726
e 616 846
e 616 1017
e 617 983
e 619 657
e 619 746
e 619 812
e 619 873
e 619 1004
e 619 1040
e 620 687
e 620 918
e 620 929
e 621 700
e 621 946
e 621 986
e 622 943
e 623 1015
e 624 1018
e 625 977
e 625 1072
e 626 665
e 626 1021
e 627 733
e 627 772
e 628 672
e 631 737
e 631 743
e 632 832
e 632 846
e 634 727
e 635 694
e 635 867
e 635 876
e 635 989
e 635 1064
e 636 721
e 637 740
e 637 830
e 637 838
e 638 803
e 639 822
e 640 800
e 640 856
e 640 929
e 641 822
e 641 923
e 642 774
e 642 1034
e 643 649
e 643 682
e 643 752
e 643 762
e 643 864
e 645 733
e 646 647
e 646 742
e 646 815
e 647 931
e 647 1002
e 647 1046
e 648 737
e 648 944
e 649 777
e 649 844
e 650 890
e 651 822
e 655 811
e 655 866
e 656 1048
e 659 900
e 659 1076
e 660 737
e 660 767
e 662 967
e 663 1056
e 664 846
e 665 869
e 665 968
e 665 996
e 665 1052
e 666 830
e 667 732
e 668 727
e 669 977
e 671 800
e 672 869
e 672 931
e 672 961
e 672 1057
e 673 1015
e 673 1034
e 674 838
e 674 1058
e 675 779
e 675 829
e 675 875
e 675 927
e 675 1001
e 675 1042
e 676 1061
e 677 1034
e 678 844
e 680 707
e 680 1040
e 680 1068
e 682 703
e 682 781
e 683 815
e 683 1034
e 684 897
e 685 963
e 686 774
e 686 846
e 687 793
e 687 814
e 687 1042
e 687 1074
e 688 718
e 688 844
e 689 885
e 689 891
e 690 897
e 690 915
e 691 866
e 692 925
e 692 1018
e 693 887
e 694 811
e 694 925
e 695 897
e 696 781
e 696 885
e 697 806
e 697 942
e 697 1042
e 698 901
e 698 938
e 699 1017
e 701 815
e 702 748
e 702 757
e 703 728
e 703 787
e 703 819
e 703 930
e 703 1037
e 705 915
e 706 718
e 708 832
e 708 967
e 709 733
e 710 803
e 711 918
e 714 866
e 714 890
e 715 932
e 715 963
e 716 781
e 716 811
e 717 838
e 717 895
e 718 837
e 718 847
e 718 927
e 718 958
e 718 1053
e 719 1069
e 720 815
e 721 870
e 721 1045
e 721 1062
e 721 1076
e 722 853
e 722 864
e 722 886
e 722 930
e 722 974
e 722 998
e 723 822
e 724 834
e 724 907
e 725 771
e 725 858
e 725 917
e 725 1024
e 726 792
e 726 848
e 726 853
e 726 863
e 726 949
e 726 952
e 727 827
e 727 843
e 727 882
e 727 1009
e 727 1039
e 727 1062
e 729 1015
e 730 1017
e 731 757
e 732 818
e 732 855
e 732 999
e 732 1008
e 732 1078
e 733 773
e 733 780
e 733 836
e 733 849
e 733 1078
e 734 838
e 734 944
e 735 1015
e 737 766
e 737 783
e 737 1066
e 739 800
e 740 810
e 740 879
e 740 958
e 740 970
e 740 997
e 741 966
e 741 977
e 742 814
e 742 903
e 742 939
e 742 968
e 743 778
e 743 808
e 743 843
e 743 874
e 743 902
e 743 960
e 743 995
e 743 1007
e 745 862
e 746 1016
e 746 1018
e 747 1049
e 748 806
e 748 877
e 748 928
e 748 951
e 748 964
e 748 982
e 748 1014
e 748 1022
e 750 774
e 751 1016
e 753 756
e 753 819
e 753 854
e 753 981
e 754 966
e 754 980
e 757 816
e 757 994
e 757 1019
e 759 809
e 760 802
e 760 874
e 760 971
e 760 1023
e 760 1052
e 762 1061
e 763 891
e 763 1021
e 764 839
e 767 810
e 767 829
e 767 861
e 769 977
e 771 839
e 772 834
e 772 1010
e 772 1012
e 772 1077
e 774 807
e 774 905
e 774 933
e 774 968
e 774 1032
e 774 1071
e 775 929
e 776 795
e 777 796
e 777 849
e 777 851
e 777 945
e 778 962
e 779 966
e 780 842
e 780 1021
e 781 792
e 781 821
e 781 969
e 781 1055
e 782 1021
e 782 1075
e 784 830
e 785 1049
e 786 925
e 788 800
e 788 890
e 789 836
e 789 871
e 789 893
e 789 913
e 789 938
e 789 960
e 789 1064
e 790 915
e 792 895
e 794 895
e 794 962
e 795 820
e 796 1058
e 798 983
e 799 897
e 800 1047
e 801 887
e 802 822
e 803 902
e 803 1051
e 804 924
e 804 1019
e 804 1076
e 805 809
e 805 1016
e 806 966
e 807 1048
e 809 886
e 809 926
e 809 1035
e 811 812
e 811 1054
e 813 842
e 813 983
e 815 941
e 815 950
e 816 977
e 817 865
e 819 891
e 820 934
e 821 943
e 822 901
e 822 1050
e 824 883
e 825 1075
e 826 1039
e 826 1041
e 826 1066
e 827 895
e 830 937
e 830 949
e 830 1054
e 830 1068
e 831 1015
e 832 882
e 832 947
e 832 969
e 832 1044
e 832 1066
e 833 839
e 835 1018
e 837 1048
e 838 924
e 838 1041
e 839 845
e 839 868
e 839 953
e 839 955
e 839 1065
e 839 1070
e 839 1080
e 841 1016
e 844 858
e 844 1080
e 845 1058
e 846 922
e 846 941
e 849 897
e 850 929
e 850 932
e 855 1048
e 856 859
e 856 914
e 856 948
e 856 1001
e 856 1014
e 857 983
e 857 1021
e 860 1028
e 861 962
e 862 921
e 862 1023
e 864 885
e 865 881
e 865 961
e 865 972
e 865 1065
e 866 898
e 866 1035
e 872 943
e 872 1058
e 876 1018
e 878 885
e 878 977
e 879 944
e 880 923
e 881 915
e 881 923
e 884 977
e 885 898
e 885 951
e 885 1011
e 885 1043
e 887 965
e 887 997
e 888 967
e 890 892
e 890 935
e 890 969
e 890 974
e 891 926
e 891 1077
e 892 934
e 894 1075
e 895 996
e 895 1002
e 895 1010
e 897 976
e 898 943
e 901 925
e 902 923
e 903 1017
e 904 1034
e 905 1061
e 906 983
e 910 918
e 911 1075
e 912 1056
e 914 963
e 915 971
e 915 1008
e 918 1005
e 920 1017
e 923 1046
e 926 1021
e 930 943
e 932 1020
e 932 1043
e 934 955
e 934 971
e 934 973
e 934 979
e 934 989
e 934 1079
e 936 1018
e 939 966
e 942 966
e 943 959
e 944 1019
e 945 983
e 953 1056
e 953 1058
e 962 1029
e 962 1038
e 963 1005
e 966 1059
e 972 1069
e 977 1074
e 980 1045
e 980 1053
e 987 1018
e 988 1016
e 989 1069
e 990 1015
e 1001 1049
e 1002 1021
e 1003 1015
e 1004 1056
e 1012 1028
e 1016 1037
e 1017 1063
e 1022 1072
e 1025 1056
e 1029 1049
e 1053 1058
e 1059 1061
e 1075 1077
